p edge 26 167
e 2 1
e 3 1
e 3 2
e 4 1
e 4 3
e 5 3
e 6 1
e 6 3
e 6 4
e 6 5
e 7 3
e 7 6
e 8 2
e 8 3
e 8 4
e 8 5
e 8 7
e 9 1
e 9 2
e 9 4
e 9 5
e 9 7
e 9 8
e 10 2
e 10 3
e 10 4
e 10 5
e 10 8
e 11 1
e 11 2
e 11 3
e 11 5
e 11 9
e 11 10
e 12 2
e 12 4
e 12 11
e 13 1
e 13 3
e 13 5
e 13 7
e 13 11
e 14 1
e 14 7
e 14 10
e 14 11
e 15 1
e 15 2
e 15 3
e 15 4
e 15 5
e 15 7
e 15 9
e 15 10
e 15 12
e 15 13
e 15 14
e 16 3
e 16 5
e 16 7
e 16 8
e 16 11
e 16 13
e 16 14
e 16 15
e 17 1
e 17 7
e 17 9
e 17 10
e 17 11
e 17 14
e 17 16
e 18 1
e 18 3
e 18 5
e 18 6
e 18 7
e 18 10
e 18 14
e 18 15
e 18 17
e 19 1
e 19 4
e 19 10
e 19 14
e 19 16
e 19 17
e 20 1
e 20 3
e 20 4
e 20 6
e 20 8
e 20 11
e 20 12
e 20 16
e 20 17
e 21 1
e 21 6
e 21 7
e 21 8
e 21 10
e 21 11
e 21 12
e 21 16
e 21 19
e 22 4
e 22 5
e 22 10
e 22 11
e 22 12
e 22 18
e 22 19
e 22 21
e 23 2
e 23 3
e 23 4
e 23 6
e 23 9
e 23 10
e 23 13
e 23 14
e 23 15
e 23 16
e 23 17
e 23 18
e 23 19
e 23 20
e 23 22
e 24 4
e 24 7
e 24 8
e 24 9
e 24 10
e 24 11
e 24 13
e 24 15
e 24 17
e 24 20
e 24 21
e 24 22
e 24 23
e 25 1
e 25 2
e 25 5
e 25 6
e 25 9
e 25 11
e 25 12
e 25 14
e 25 17
e 25 20
e 25 22
e 26 1
e 26 2
e 26 4
e 26 5
e 26 6
e 26 8
e 26 10
e 26 11
e 26 12
e 26 13
e 26 18
e 26 19
e 26 22
e 26 24
e 26 25
